<instance format="XCSP3" type="CSP">
  <constraints>
    <mdd>
        <list> x1 x2 x3 </list>
        <transitions>
          (r,0,n1)(r,1,n2)(r,2,n3)
          (n1,2,n4)(n2,2,n4)(n3,0,n5)
          (n4,0,t)(n5,0,t)
        </transitions>
    </mdd>
  </constraints>
</instance>
